Version identifier: 22.1.0.0 | 2022-03-09 | 1a383f8ce
CPXPARAM_Read_DataCheck                          1
1 of 1 MIP starts provided solutions.
MIP start 'm1' defined initial solution with objective 76.0000.
Tried aggregator 4 times.
MIP Presolve eliminated 171672 rows and 13364 columns.
MIP Presolve modified 1679 coefficients.
Aggregator did 161679 substitutions.
Reduced MIP has 14110 rows, 164069 columns, and 342613 nonzeros.
Reduced MIP has 164023 binaries, 46 generals, 0 SOSs, and 0 indicators.
Presolve time = 2.50 sec. (2565.50 ticks)
Tried aggregator 1 time.
Detecting symmetries...
Reduced MIP has 14110 rows, 164069 columns, and 342613 nonzeros.
Reduced MIP has 164023 binaries, 46 generals, 0 SOSs, and 0 indicators.
Presolve time = 0.49 sec. (279.77 ticks)
Probing fixed 70 vars, tightened 0 bounds.
Probing time = 0.70 sec. (70.31 ticks)
Clique table members: 331328.
MIP emphasis: balance optimality and feasibility.
MIP search method: dynamic search.
Parallel mode: deterministic, using up to 8 threads.
Root relaxation solution time = 1.59 sec. (1132.47 ticks)

        Nodes                                         Cuts/
   Node  Left     Objective  IInf  Best Integer    Best Bound    ItCnt     Gap

*     0+    0                           76.0000        0.0000           100.00%
      0     0       46.3952 10490       76.0000       46.3952       29   38.95%
      0     0       75.0000  1223       76.0000     Fract: 29    28403    1.32%
      0     0       75.0000  1304       76.0000      Cuts: 97    55415    1.32%

Repeating presolve.
Tried aggregator 3 times.
MIP Presolve eliminated 2939 rows and 92866 columns.
MIP Presolve modified 9 coefficients.
Aggregator did 2252 substitutions.
Reduced MIP has 8919 rows, 68951 columns, and 146273 nonzeros.
Reduced MIP has 68951 binaries, 0 generals, 0 SOSs, and 0 indicators.
Presolve time = 0.35 sec. (309.71 ticks)
Tried aggregator 2 times.
Detecting symmetries...
MIP Presolve eliminated 0 rows and 6 columns.
MIP Presolve modified 7 coefficients.
Aggregator did 15 substitutions.
Reduced MIP has 8904 rows, 68930 columns, and 146308 nonzeros.
Reduced MIP has 68930 binaries, 0 generals, 0 SOSs, and 0 indicators.
Presolve time = 0.15 sec. (125.93 ticks)
Represolve time = 0.68 sec. (596.41 ticks)
Probing fixed 61 vars, tightened 0 bounds.
Probing time = 0.28 sec. (78.64 ticks)
Clique table members: 138261.
MIP emphasis: balance optimality and feasibility.
MIP search method: dynamic search.
Parallel mode: deterministic, using up to 8 threads.
Root relaxation solution time = 13.84 sec. (8140.86 ticks)

        Nodes                                         Cuts/
   Node  Left     Objective  IInf  Best Integer    Best Bound    ItCnt     Gap

*     0+    0                           76.0000       75.0000             1.32%
      0     0       75.0000  2621       76.0000       75.0000   139514    1.32%
      0     0       75.0000   864       76.0000      Cuts: 17   167939    1.32%
      0     0       75.0000  1068       76.0000      Cuts: 51   197289    1.32%
      0     0       75.0000   964       76.0000   ZeroHalf: 9   236792    1.32%
      0     0       75.0000   911       76.0000      Cuts: 61   266273    1.32%
      0     0       75.0000   947       76.0000      Cuts: 57   310651    1.32%
Heuristic still looking.
Version identifier: 22.1.0.0 | 2022-03-09 | 1a383f8ce
CPXPARAM_Read_DataCheck                          1
CPXPARAM_TimeLimit                               600
1 of 1 MIP starts provided solutions.
MIP start 'm1' defined initial solution with objective 76.0000.
Tried aggregator 4 times.
MIP Presolve eliminated 171672 rows and 13364 columns.
MIP Presolve modified 1679 coefficients.
Aggregator did 161679 substitutions.
Reduced MIP has 14110 rows, 164069 columns, and 342613 nonzeros.
Reduced MIP has 164023 binaries, 46 generals, 0 SOSs, and 0 indicators.
Presolve time = 2.49 sec. (2565.50 ticks)
Tried aggregator 1 time.
Detecting symmetries...
Reduced MIP has 14110 rows, 164069 columns, and 342613 nonzeros.
Reduced MIP has 164023 binaries, 46 generals, 0 SOSs, and 0 indicators.
Presolve time = 0.47 sec. (279.77 ticks)
Probing fixed 70 vars, tightened 0 bounds.
Probing time = 0.70 sec. (70.31 ticks)
Clique table members: 331328.
MIP emphasis: balance optimality and feasibility.
MIP search method: dynamic search.
Parallel mode: deterministic, using up to 8 threads.
Root relaxation solution time = 1.60 sec. (1132.47 ticks)

        Nodes                                         Cuts/
   Node  Left     Objective  IInf  Best Integer    Best Bound    ItCnt     Gap

*     0+    0                           76.0000        0.0000           100.00%
      0     0       46.3952 10490       76.0000       46.3952       29   38.95%
      0     0       75.0000  1223       76.0000     Fract: 29    28403    1.32%
      0     0       75.0000  1304       76.0000      Cuts: 97    55415    1.32%

Repeating presolve.
Tried aggregator 3 times.
MIP Presolve eliminated 2939 rows and 92866 columns.
MIP Presolve modified 9 coefficients.
Aggregator did 2252 substitutions.
Reduced MIP has 8919 rows, 68951 columns, and 146273 nonzeros.
Reduced MIP has 68951 binaries, 0 generals, 0 SOSs, and 0 indicators.
Presolve time = 0.35 sec. (309.71 ticks)
Tried aggregator 2 times.
Detecting symmetries...
MIP Presolve eliminated 0 rows and 6 columns.
MIP Presolve modified 7 coefficients.
Aggregator did 15 substitutions.
Reduced MIP has 8904 rows, 68930 columns, and 146308 nonzeros.
Reduced MIP has 68930 binaries, 0 generals, 0 SOSs, and 0 indicators.
Presolve time = 0.15 sec. (125.93 ticks)
Represolve time = 0.68 sec. (596.41 ticks)
Probing fixed 61 vars, tightened 0 bounds.
Probing time = 0.28 sec. (78.64 ticks)
Clique table members: 138261.
MIP emphasis: balance optimality and feasibility.
MIP search method: dynamic search.
Parallel mode: deterministic, using up to 8 threads.
Root relaxation solution time = 13.78 sec. (8140.86 ticks)

        Nodes                                         Cuts/
   Node  Left     Objective  IInf  Best Integer    Best Bound    ItCnt     Gap

*     0+    0                           76.0000       75.0000             1.32%
      0     0       75.0000  2621       76.0000       75.0000   139514    1.32%
      0     0       75.0000   864       76.0000      Cuts: 17   167939    1.32%
      0     0       75.0000  1068       76.0000      Cuts: 51   197289    1.32%
      0     0       75.0000   964       76.0000   ZeroHalf: 9   236792    1.32%
      0     0       75.0000   911       76.0000      Cuts: 61   266273    1.32%

Clique cuts applied:  11
Zero-half cuts applied:  117
Lift and project cuts applied:  3
Gomory fractional cuts applied:  32

Root node processing (before b&c):
  Real time             =  600.03 sec. (370419.01 ticks)
Parallel b&c, 8 threads:
  Real time             =    0.00 sec. (0.00 ticks)
  Sync time (average)   =    0.00 sec.
  Wait time (average)   =    0.00 sec.
                          ------------
Total (root+branch&cut) =  600.03 sec. (370419.01 ticks)
